TYPE : Vertex Cover
DIMENSION: 30
EDGE_DATA_SECTION:
0 3
0 13
0 14
0 24
1 17
1 18
1 24
2 7
2 12
2 14
2 15
2 19
2 20
3 6
3 9
3 23
4 18
5 13
5 14
5 16
6 20
7 15
7 17
7 26
8 14
8 17
8 21
8 26
9 12
9 13
9 17
10 13
10 29
11 15
11 24
11 28
12 17
12 21
13 19
13 20
14 15
14 19
14 20
14 26
15 16
15 18
15 29
16 17
16 28
17 28
18 24
18 26
19 21
19 25
21 25
21 26
22 25
22 28
23 29
24 27
-1
VERTEX_DEGREE:
4.0 3.0 6.0 4.0 1.0 3.0 2.0 4.0 4.0 4.0 2.0 3.0 4.0 6.0 8.0 7.0 4.0 7.0 5.0 5.0 4.0 5.0 2.0 2.0 5.0 3.0 5.0 1.0 4.0 3.0
VERTEX_COVER:
2 3 5 12 13 14 15 17 18 20 21 24 25 26 28 29
EOF
